p edge 70 210
e 1 6
e 1 29
e 1 47
e 2 1
e 2 1
e 2 56
e 3 2
e 3 23
e 3 27
e 4 5
e 4 29
e 4 55
e 5 10
e 5 33
e 5 44
e 6 12
e 6 35
e 6 66
e 7 26
e 7 52
e 7 66
e 8 49
e 8 49
e 8 63
e 9 34
e 9 46
e 9 58
e 10 29
e 10 48
e 10 59
e 11 5
e 11 7
e 11 55
e 12 17
e 12 25
e 12 62
e 13 26
e 13 31
e 13 39
e 14 35
e 14 39
e 14 59
e 15 8
e 15 43
e 15 69
e 16 18
e 16 32
e 16 33
e 17 13
e 17 13
e 17 40
e 18 5
e 18 29
e 18 50
e 19 16
e 19 17
e 19 38
e 20 16
e 20 27
e 20 45
e 21 12
e 21 22
e 21 62
e 22 8
e 22 14
e 22 48
e 23 3
e 23 44
e 23 59
e 24 23
e 24 41
e 24 44
e 25 26
e 25 31
e 25 42
e 26 16
e 26 43
e 26 62
e 27 4
e 27 67
e 27 67
e 28 8
e 28 15
e 28 47
e 29 17
e 29 31
e 29 57
e 30 14
e 30 18
e 30 32
e 31 9
e 31 37
e 31 47
e 32 14
e 32 16
e 32 69
e 33 16
e 33 17
e 33 24
e 34 39
e 34 67
e 34 69
e 35 24
e 35 40
e 35 69
e 36 2
e 36 8
e 36 24
e 37 5
e 37 17
e 37 51
e 38 24
e 38 48
e 38 63
e 39 4
e 39 21
e 39 22
e 40 34
e 40 35
e 40 52
e 41 13
e 41 40
e 41 63
e 42 1
e 42 27
e 42 38
e 43 29
e 43 55
e 43 61
e 44 12
e 44 65
e 44 69
e 45 19
e 45 22
e 45 51
e 46 16
e 46 23
e 46 26
e 47 8
e 47 39
e 47 54
e 48 4
e 48 46
e 48 55
e 49 26
e 49 66
e 49 70
e 50 2
e 50 34
e 50 59
e 51 15
e 51 29
e 51 38
e 52 8
e 52 39
e 52 53
e 53 9
e 53 11
e 53 49
e 54 21
e 54 43
e 54 52
e 55 6
e 55 13
e 55 61
e 56 28
e 56 29
e 56 39
e 57 4
e 57 12
e 57 48
e 58 44
e 58 54
e 58 70
e 59 7
e 59 44
e 59 58
e 60 8
e 60 19
e 60 25
e 61 26
e 61 36
e 61 56
e 62 24
e 62 52
e 62 55
e 63 32
e 63 34
e 63 65
e 64 24
e 64 26
e 64 28
e 65 31
e 65 40
e 65 67
e 66 10
e 66 11
e 66 69
e 67 14
e 67 39
e 67 57
e 68 30
e 68 62
e 68 63
e 69 3
e 69 10
e 69 67
e 70 17
e 70 21
e 70 21
